% Generated FlatZinc statistics:
%%%mzn-stat: paths=0
%%%mzn-stat: flatIntVars=160
%%%mzn-stat: flatIntConstraints=1192
%%%mzn-stat: method="minimize"
%%%mzn-stat: flatTime=0.0699635
%%%mzn-stat-end

yCoor = [8, 20, 22, 8, 19, 1, 21, 11, 36, 9, 11, 1, 13, 15, 10, 3, 26, 5, 16, 10, 5, 15, 19, 11, 10, 6, 11, 10, 6, 23, 6, 7, 5, 3, 32, 30, 23, 21, 1, 15, 13, 8, 8, 17, 17, 11, 23, 1, 31, 15, 4, 11, 15, 18, 1, 9, 5, 11, 19, 5, 11, 26, 5, 6, 6, 32, 10, 15, 24, 27, 9, 26, 15, 11, 21, 40, 31, 11, 11, 1, 1, 10, 4, 6, 6, 11, 18, 24, 23, 6, 1, 9, 17, 28, 16, 1, 13, 25, 30, 23, 10, 26, 25, 35, 26, 19, 28, 23, 19, 11, 5, 38, 30, 23, 15, 14, 3, 19, 27, 6, 1, 28, 15, 5, 1, 19, 31, 25, 19, 28, 1, 1, 11, 15, 1, 37, 11, 5, 11, 28];
S = [16, 13, 31, 16, 39, 4, 11, 19, 18, 21, 30, 36, 22, 28, 10, 11, 20, 20];
D = 40;
objective = 405;
----------
%%%mzn-stat: initTime=0.005505
%%%mzn-stat: solveTime=1199.92
%%%mzn-stat: solutions=90
%%%mzn-stat: variables=160
%%%mzn-stat: propagators=1193
%%%mzn-stat: propagations=1124479049
%%%mzn-stat: nodes=32850191
%%%mzn-stat: failures=16422630
%%%mzn-stat: restarts=0
%%%mzn-stat: peakDepth=161
%%%mzn-stat-end
%%%mzn-stat: nSolutions=1
%%%mzn-stat-end
